p cnf 5 11
-4 -5 -2 1 2 3 4 5 .%</6::))>>&'#709 0
-5 -3 -4 -1 -2 -2350647397131123175 1 2 3 4 5 2350647397131123175 / $(:?!(. 0
-4 -3 -2 2 3 4 >..&7 0
-4 -5 -3 -1 1 2 3 4 5 ";4? 0
-4 -2 2 4 <>&0<<?*7?/,47.$,&#? 0
-4 2350647397131123175 2 3 4 ,?")?)6))65#5%'3&//< 0
 2 4 %)=2=)),-"*(:3>7<- 4.337431005982406 0
-4 -1 -3 -5 1 3 4 5 0
 2350647397131123175 0
-5 -2 -2350647397131123175 -4 -1 1 2 4 5 2350647397131123175 0
